benchmarks/bfuzz0/165061254810983249936927313991008130861.smt2
(set-logic QF_FP)
(declare-const x0 (_ FloatingPoint 8 24))
(declare-const x1 (_ FloatingPoint 8 24))
(declare-const x2 (_ FloatingPoint 8 24))
(declare-const x3 (_ FloatingPoint 8 24))
(declare-const x4 (_ FloatingPoint 8 24))
(declare-const x5 (_ FloatingPoint 8 24))
(declare-const x6 (_ FloatingPoint 8 24))
(declare-const x7 (_ FloatingPoint 8 24))
(assert (fp.leq (fp.div RNE (fp.sub RNE (fp.sub RNE (fp.mul RNE x4 x4) (fp.mul RNE x1 x6)) (fp.div RNE (fp.div RNE x7 x2) (fp.neg x5))) (fp.div RNE (fp.neg (fp.mul RNE x6 x6)) (fp.sub RNE (fp.mul RNE x7 x3) (fp.add RNE x1 x3)))) (fp.neg (fp.add RNE (fp.neg (fp.sub RNE x6 x6)) (fp.div RNE (fp.sub RNE x0 x5) (fp.mul RNE x3 x0))))))
(check-sat)
