db/data/165061254810983249936927313991008130861.z3.out
sat
-------------------
122.656463523
